(set-logic QF_UF)
(declare-fun A0 () Bool)
(declare-fun A1 () Bool)
(declare-fun A2 () Bool)
(declare-fun A3 () Bool)
(declare-fun A4 () Bool)
(declare-fun A5 () Bool)
(declare-fun A6 () Bool)
(declare-fun A7 () Bool)
(declare-fun A9 () Bool)
(declare-fun A10 () Bool)
(declare-fun A11 () Bool)
(declare-fun A13 () Bool)
(declare-fun A14 () Bool)
(declare-fun A15 () Bool)
(declare-fun A16 () Bool)
(declare-fun A17 () Bool)
(declare-fun A18 () Bool)
(declare-fun A19 () Bool)
(declare-fun A20 () Bool)
(declare-fun A21 () Bool)
(declare-fun A23 () Bool)
(declare-fun A24 () Bool)
(assert (let ((.def_0 (or A20 A0))) (let ((.def_1 (not .def_0))) (let ((.def_2 (not A18))) (let ((.def_3 (= A11 .def_2))) (let ((.def_4 (not .def_3))) (let ((.def_5 (or .def_4 .def_1))) (let ((.def_6 (not .def_5))) (let ((.def_7 (not A23))) (let ((.def_8 (= A14 .def_7))) (let ((.def_9 (not A21))) (let ((.def_10 (not A10))) (let ((.def_11 (or .def_10 .def_9))) (let ((.def_12 (not .def_11))) (let ((.def_13 (and .def_12 .def_8))) (let ((.def_14 (and .def_13 .def_6))) (let ((.def_15 (not A20))) (let ((.def_16 (or A18 .def_15))) (let ((.def_17 (and A3 A24))) (let ((.def_18 (= .def_17 .def_16))) (let ((.def_19 (not .def_18))) (let ((.def_20 (not A11))) (let ((.def_21 (and .def_20 A21))) (let ((.def_22 (not A24))) (let ((.def_23 (or A15 .def_22))) (let ((.def_24 (and .def_23 .def_21))) (let ((.def_25 (not .def_24))) (let ((.def_26 (and .def_25 .def_19))) (let ((.def_27 (not .def_26))) (let ((.def_28 (= .def_27 .def_14))) (let ((.def_29 (not A7))) (let ((.def_30 (and .def_29 .def_29))) (let ((.def_31 (or A14 A15))) (let ((.def_32 (not .def_31))) (let ((.def_33 (or .def_32 .def_30))) (let ((.def_34 (not .def_33))) (let ((.def_35 (or A7 A4))) (let ((.def_36 (not A1))) (let ((.def_37 (not A2))) (let ((.def_38 (and .def_37 .def_36))) (let ((.def_39 (not .def_38))) (let ((.def_40 (or .def_39 .def_35))) (let ((.def_41 (or .def_40 .def_34))) (let ((.def_42 (not A9))) (let ((.def_43 (and .def_42 .def_10))) (let ((.def_44 (not A16))) (let ((.def_45 (and .def_44 A15))) (let ((.def_46 (or .def_45 .def_43))) (let ((.def_47 (not A3))) (let ((.def_48 (= .def_47 A0))) (let ((.def_49 (not .def_48))) (let ((.def_50 (and .def_15 A18))) (let ((.def_51 (not .def_50))) (let ((.def_52 (or .def_51 .def_49))) (let ((.def_53 (not .def_52))) (let ((.def_54 (or .def_53 .def_46))) (let ((.def_55 (not .def_54))) (let ((.def_56 (or .def_55 .def_41))) (let ((.def_57 (not .def_56))) (let ((.def_58 (and .def_57 .def_28))) (let ((.def_59 (not .def_58))) (let ((.def_60 (not A6))) (let ((.def_61 (and A5 .def_60))) (let ((.def_62 (not .def_61))) (let ((.def_63 (and A1 A11))) (let ((.def_64 (and .def_63 .def_62))) (let ((.def_65 (or .def_2 A10))) (let ((.def_66 (and .def_47 A5))) (let ((.def_67 (or .def_66 .def_65))) (let ((.def_68 (not .def_67))) (let ((.def_69 (or .def_68 .def_64))) (let ((.def_70 (not A19))) (let ((.def_71 (or .def_70 A21))) (let ((.def_72 (not A0))) (let ((.def_73 (or A13 .def_72))) (let ((.def_74 (or .def_73 .def_71))) (let ((.def_75 (not A13))) (let ((.def_76 (or A5 .def_75))) (let ((.def_77 (not .def_76))) (let ((.def_78 (not A17))) (let ((.def_79 (or A16 .def_78))) (let ((.def_80 (not .def_79))) (let ((.def_81 (and .def_80 .def_77))) (let ((.def_82 (not .def_81))) (let ((.def_83 (or .def_82 .def_74))) (let ((.def_84 (or .def_83 .def_69))) (let ((.def_85 (or A11 .def_20))) (let ((.def_86 (and .def_29 A23))) (let ((.def_87 (and .def_86 .def_85))) (let ((.def_88 (not .def_87))) (let ((.def_89 (= A17 .def_47))) (let ((.def_90 (not .def_89))) (let ((.def_91 (and A9 A20))) (let ((.def_92 (not .def_91))) (let ((.def_93 (and .def_92 .def_90))) (let ((.def_94 (or .def_93 .def_88))) (let ((.def_95 (and .def_75 .def_7))) (let ((.def_96 (or .def_2 .def_2))) (let ((.def_97 (and .def_96 .def_95))) (let ((.def_98 (not .def_97))) (let ((.def_99 (= .def_72 .def_2))) (let ((.def_100 (not .def_99))) (let ((.def_101 (or A6 A3))) (let ((.def_102 (and .def_101 .def_100))) (let ((.def_103 (not .def_102))) (let ((.def_104 (and .def_103 .def_98))) (let ((.def_105 (not .def_104))) (let ((.def_106 (and .def_105 .def_94))) (let ((.def_107 (not .def_106))) (let ((.def_108 (and .def_107 .def_84))) (let ((.def_109 (and .def_108 .def_59))) (let ((.def_110 (not .def_109))) .def_110))))))))))))))))))))))))))))))))))))))))))))))))))))))))))))))))))))))))))))))))))))))))))))))))))))))))))))))))
(check-sat)
